1
8
2
3
4
6
32
31
30
34
33
59
61
60
62
66
65
64
63
68
69
70
71
72
73
74
75
76
77
78
79
80
92
93
94
95
96
97
98
99
100
124
123
122
121
120
119
118
117
116
115
82
84
81
83
67
58
57
56
55
37
38
24
25
26
39
23
22
40
21
20
19
18
45
44
43
42
41
54
52
53
46
47
48
49
50
51
15
14
11
12
13
10
9
16
17
88
89
103
114
113
112
111
110
109
108
107
106
105
104
102
90
86
87
85
91
101
36
35
29
28
27
7
5
1
